44 57 93 95 55 21 38 37 82 3 24 41 22 48 61 65 53 20 56 28 19 73 11 33 63 29 87 8 98 60 26 50 91 77 75 13 15 23 27 54 4 88 72 71 6 40 9 83 89 90 43 86 12 62 96 7 64 85 1 78 97 79 81 25 84 76 5 92 47 99 42 49 31 52 68 45 16 74 39 58 94 18 36 10 35 51 69 2 80 17 34 14 66 30 70 0 59 32 46 67 

